
Gurobi 6.0.4 (win64) logging started 06/18/15 16:12:22

Read LP format model from file C:\MT\repository\VRPTWMS\instances\mip\freight\N8-C_DV10-C_SV50_F18_4_No_1.lp
Reading time = 0.01 seconds
(null): 353 rows, 217 columns, 1467 nonzeros
Optimize a model with 353 rows, 217 columns and 1467 nonzeros
Model has 648 quadratic constraints
Coefficient statistics:
  Matrix range    [1e+00, 1e+06]
  Objective range [2e+04, 1e+07]
  Bounds range    [1e+00, 1e+06]
  RHS range       [1e+00, 1e+06]
Presolve removed 67 rows and 32 columns
Presolve time: 0.04s
Presolved: 1520 rows, 834 columns, 7017 nonzeros
Variable types: 585 continuous, 249 integer (198 binary)
Found heuristic solution: objective 8.324920e+07

Root relaxation: objective 1.202922e+07, 123 iterations, 0.00 seconds

    Nodes    |    Current Node    |     Objective Bounds      |     Work
 Expl Unexpl |  Obj  Depth IntInf | Incumbent    BestBd   Gap | It/Node Time

     0     0 1.2029e+07    0   37 8.3249e+07 1.2029e+07  85.6%     -    0s
H    0     0                    5.299070e+07 1.2029e+07  77.3%     -    0s
     0     0 1.2959e+07    0   82 5.2991e+07 1.2959e+07  75.5%     -    0s
     0     0 2.1410e+07    0   19 5.2991e+07 2.1410e+07  59.6%     -    0s
H    0     0                    5.227600e+07 2.1410e+07  59.0%     -    0s
H    0     0                    4.219570e+07 2.1410e+07  49.3%     -    0s
     0     0 2.1475e+07    0   57 4.2196e+07 2.1475e+07  49.1%     -    0s
     0     0 2.1482e+07    0   48 4.2196e+07 2.1482e+07  49.1%     -    0s
     0     0 2.1482e+07    0   60 4.2196e+07 2.1482e+07  49.1%     -    0s
     0     0 2.1484e+07    0   66 4.2196e+07 2.1484e+07  49.1%     -    0s
     0     0 2.1486e+07    0   61 4.2196e+07 2.1486e+07  49.1%     -    0s
     0     0 2.1486e+07    0   83 4.2196e+07 2.1486e+07  49.1%     -    0s
     0     0 2.1486e+07    0   83 4.2196e+07 2.1486e+07  49.1%     -    0s
     0     2 2.1486e+07    0   83 4.2196e+07 2.1486e+07  49.1%     -    0s
H  160   101                    4.200930e+07 2.1671e+07  48.4%  34.8    0s
H  270   181                    4.188890e+07 2.1687e+07  48.2%  40.2    0s
H  442   265                    4.178790e+07 2.1805e+07  47.8%  42.6    0s
H  544   309                    4.174230e+07 2.1873e+07  47.6%  40.8    1s
*  970   437              34    3.252140e+07 2.1951e+07  32.5%  47.6    3s
H  994   425                    3.251630e+07 2.1951e+07  32.5%  47.4    3s
H 1110   385                    3.243830e+07 2.2014e+07  32.1%  48.8    3s
* 1386   367              28    3.243200e+07 2.2132e+07  31.8%  50.5    4s
H 1555   299                    3.224680e+07 2.2185e+07  31.2%  53.2    4s
* 1659   275              29    3.222780e+07 2.2211e+07  31.1%  54.1    4s
  1774   304 2.2549e+07   19   82 3.2228e+07 2.2232e+07  31.0%  54.7    5s
H 2775   128                    3.220230e+07 2.2798e+07  29.2%  62.0    7s

Cutting planes:
  Gomory: 7
  Implied bound: 17
  Clique: 1
  MIR: 9
  Flow cover: 13
  Zero half: 5

Explored 3049 nodes (187481 simplex iterations) in 8.38 seconds
Thread count was 2 (of 4 available processors)

Optimal solution found (tolerance 1.00e-04)
Best objective 3.220230000000e+07, best bound 3.220230000000e+07, gap 0.0%
k_c1	40000.0
k_c2	30000.0
k_c3	90000.0
k_c4	0.0
k_c5	20000.0
k_c6	70000.0
k_c7	100000.0
k_c8	0.0
k_dN	-0.0
kDash_c1	0.0
kDash_c2	0.0
kDash_c3	70000.0
kDash_c4	20000.0
kDash_c5	0.0
kDash_c6	0.0
kDash_c7	70000.0
kDash_c8	40000.0
o_1	0.0
o_2	0.0
o_3	-0.0
o_4	1.0
o_5	0.0
o_6	-0.0
o_7	0.0
o_8	1.0
p_1	0.0
p_2	0.0
p_3	0.0
p_4	1.0
p_5	0.0
p_6	-0.0
p_7	0.0
p_8	1.0
phi_c1	49627.0
phi_c2	155668.0
phi_c3	168299.0
phi_c4	125186.0
phi_c5	41110.0
phi_c6	165462.0
phi_c7	163944.0
phi_c8	158637.0
phi_d0	180000.0
phi_dN	-0.0
pi_c1	100000.0
pi_c2	100000.0
pi_c3	30000.0
pi_c4	100000.0
pi_c5	100000.0
pi_c6	100000.0
pi_c7	100204.0
pi_c8	200000.0
pi_dN	-0.0
tauD_c1	850000.0
tauD_c2	551350.0
tauD_c3	300000.0
tauD_c4	676950.0
tauD_c5	850000.0
tauD_c6	450000.0
tauD_c7	250000.0
tauD_c8	495500.0
tauD_d0	-0.0
tauD_dN	1000000.0
tauS_c1	831750.0
tauS_c2	614575.0
tauS_c3	151700.0
tauS_c4	676950.0
tauS_c5	626200.0
tauS_c6	131400.0
tauS_c7	611425.0
tauS_c8	318350.0
tauS_d0	-0.0
tauS_dN	811825.0
x_c1_dN	1.0
x_c2_c4	1.0
x_c3_c6	1.0
x_c4_c5	1.0
x_c5_dN	1.0
x_c6_c8	1.0
x_c7_c2	1.0
x_c8_c1	1.0
x_d0_c3	1.0
x_d0_c7	1.0
z_c4_dN	1.0
z_c8_c4	1.0
z_d0_c8	1.0
